20	38
0	6	48
0	10	77
0	11	27
0	15	84
0	16	59
1	7	97
1	15	74
1	17	90
2	6	48
2	9	27
2	12	40
3	12	53
3	13	9
3	14	99
3	17	59
4	5	10
4	10	3
4	12	5
4	18	83
5	11	53
5	15	19
6	7	71
6	11	50
6	16	99
6	17	86
6	19	95
7	13	93
8	12	34
8	18	52
9	13	80
9	16	44
10	13	26
10	19	8
12	13	0
12	19	60
13	18	98
14	19	13
17	18	68
